NAME: FLS_338.hcp
COMMENT: 
TYPE: HCP
DIMENSION: 338
EDGE_DATA_FORMAT : EDGE_LIST
EDGE_DATA_SECTION
1 2
1 3
1 18
1 19
2 1
2 3
2 20
2 35
3 1
3 2
3 50
3 51
4 5
4 13
4 19
4 67
5 4
5 6
5 7
5 19
6 5
6 7
6 11
6 16
7 5
7 6
7 8
7 19
8 7
8 9
8 14
8 19
9 8
9 10
9 18
9 19
10 9
10 11
10 12
10 19
11 6
11 10
11 12
11 16
12 10
12 11
12 13
12 19
13 4
13 12
13 14
13 19
14 8
14 13
14 15
14 19
15 14
15 16
15 17
15 19
16 6
16 11
16 15
16 17
17 15
17 16
17 18
17 19
18 1
18 9
18 17
18 19
19 1
19 4
19 5
19 7
19 8
19 9
19 10
19 12
19 13
19 14
19 15
19 17
19 18
19 152
20 2
20 21
20 29
20 35
21 20
21 22
21 23
21 35
22 21
22 23
22 27
22 32
23 21
23 22
23 24
23 35
24 23
24 25
24 30
24 35
25 24
25 26
25 34
25 35
26 25
26 27
26 28
26 35
27 22
27 26
27 28
27 32
28 26
28 27
28 29
28 35
29 20
29 28
29 30
29 35
30 24
30 29
30 31
30 35
31 30
31 32
31 33
31 35
32 22
32 27
32 31
32 33
33 31
33 32
33 34
33 35
34 25
34 33
34 35
34 66
35 2
35 20
35 21
35 23
35 24
35 25
35 26
35 28
35 29
35 30
35 31
35 33
35 34
35 82
36 37
36 45
36 51
36 169
37 36
37 38
37 39
37 51
38 37
38 39
38 43
38 48
39 37
39 38
39 40
39 51
40 39
40 41
40 46
40 51
41 40
41 42
41 50
41 51
42 41
42 43
42 44
42 51
43 38
43 42
43 44
43 48
44 42
44 43
44 45
44 51
45 36
45 44
45 46
45 51
46 40
46 45
46 47
46 51
47 46
47 48
47 49
47 51
48 38
48 43
48 47
48 49
49 47
49 48
49 50
49 51
50 3
50 41
50 49
50 51
51 3
51 36
51 37
51 39
51 40
51 41
51 42
51 44
51 45
51 46
51 47
51 49
51 50
51 83
52 53
52 61
52 67
52 169
53 52
53 54
53 55
53 67
54 53
54 55
54 59
54 64
55 53
55 54
55 56
55 67
56 55
56 57
56 62
56 67
57 56
57 58
57 66
57 67
58 57
58 59
58 60
58 67
59 54
59 58
59 60
59 64
60 58
60 59
60 61
60 67
61 52
61 60
61 62
61 67
62 56
62 61
62 63
62 67
63 62
63 64
63 65
63 67
64 54
64 59
64 63
64 65
65 63
65 64
65 66
65 67
66 34
66 57
66 65
66 67
67 4
67 52
67 53
67 55
67 56
67 57
67 58
67 60
67 61
67 62
67 63
67 65
67 66
67 252
68 69
68 77
68 83
68 168
69 68
69 70
69 71
69 83
70 69
70 71
70 75
70 80
71 69
71 70
71 72
71 83
72 71
72 73
72 78
72 83
73 72
73 74
73 82
73 83
74 73
74 75
74 76
74 83
75 70
75 74
75 76
75 80
76 74
76 75
76 77
76 83
77 68
77 76
77 78
77 83
78 72
78 77
78 79
78 83
79 78
79 80
79 81
79 83
80 70
80 75
80 79
80 81
81 79
81 80
81 82
81 83
82 35
82 73
82 81
82 83
83 51
83 68
83 69
83 71
83 72
83 73
83 74
83 76
83 77
83 78
83 79
83 81
83 82
83 236
84 86
84 88
84 103
84 104
85 87
85 104
85 153
85 169
86 84
86 88
86 105
86 120
87 85
87 121
87 137
87 169
88 84
88 86
88 135
88 136
89 90
89 98
89 104
89 152
90 89
90 91
90 92
90 104
91 90
91 92
91 96
91 101
92 90
92 91
92 93
92 104
93 92
93 94
93 99
93 104
94 93
94 95
94 103
94 104
95 94
95 96
95 97
95 104
96 91
96 95
96 97
96 101
97 95
97 96
97 98
97 104
98 89
98 97
98 99
98 104
99 93
99 98
99 100
99 104
100 99
100 101
100 102
100 104
101 91
101 96
101 100
101 102
102 100
102 101
102 103
102 104
103 84
103 94
103 102
103 104
104 84
104 85
104 89
104 90
104 92
104 93
104 94
104 95
104 97
104 98
104 99
104 100
104 102
104 103
105 86
105 106
105 114
105 120
106 105
106 107
106 108
106 120
107 106
107 108
107 112
107 117
108 106
108 107
108 109
108 120
109 108
109 110
109 115
109 120
110 109
110 111
110 119
110 120
111 110
111 112
111 113
111 120
112 107
112 111
112 113
112 117
113 111
113 112
113 114
113 120
114 105
114 113
114 115
114 120
115 109
115 114
115 116
115 120
116 115
116 117
116 118
116 120
117 107
117 112
117 116
117 118
118 116
118 117
118 119
118 120
119 110
119 118
119 120
119 151
120 86
120 105
120 106
120 108
120 109
120 110
120 111
120 113
120 114
120 115
120 116
120 118
120 119
120 167
121 87
121 122
121 130
121 136
122 121
122 123
122 124
122 136
123 122
123 124
123 128
123 133
124 122
124 123
124 125
124 136
125 124
125 126
125 131
125 136
126 125
126 127
126 135
126 136
127 126
127 128
127 129
127 136
128 123
128 127
128 129
128 133
129 127
129 128
129 130
129 136
130 121
130 129
130 131
130 136
131 125
131 130
131 132
131 136
132 131
132 133
132 134
132 136
133 123
133 128
133 132
133 134
134 132
134 133
134 135
134 136
135 88
135 126
135 134
135 136
136 88
136 121
136 122
136 124
136 125
136 126
136 127
136 129
136 130
136 131
136 132
136 134
136 135
136 168
137 87
137 138
137 146
137 152
138 137
138 139
138 140
138 152
139 138
139 140
139 144
139 149
140 138
140 139
140 141
140 152
141 140
141 142
141 147
141 152
142 141
142 143
142 151
142 152
143 142
143 144
143 145
143 152
144 139
144 143
144 145
144 149
145 143
145 144
145 146
145 152
146 137
146 145
146 147
146 152
147 141
147 146
147 148
147 152
148 147
148 149
148 150
148 152
149 139
149 144
149 148
149 150
150 148
150 149
150 151
150 152
151 119
151 142
151 150
151 152
152 19
152 89
152 137
152 138
152 140
152 141
152 142
152 143
152 145
152 146
152 147
152 148
152 150
152 151
153 85
153 154
153 162
153 168
154 153
154 155
154 156
154 168
155 154
155 156
155 160
155 165
156 154
156 155
156 157
156 168
157 156
157 158
157 163
157 168
158 157
158 159
158 167
158 168
159 158
159 160
159 161
159 168
160 155
160 159
160 161
160 165
161 159
161 160
161 162
161 168
162 153
162 161
162 163
162 168
163 157
163 162
163 164
163 168
164 163
164 165
164 166
164 168
165 155
165 160
165 164
165 166
166 164
166 165
166 167
166 168
167 120
167 158
167 166
167 168
168 68
168 136
168 153
168 154
168 156
168 157
168 158
168 159
168 161
168 162
168 163
168 164
168 166
168 167
169 36
169 52
169 85
169 87
170 171
170 172
170 187
170 188
171 170
171 172
171 189
171 204
172 170
172 171
172 219
172 220
173 174
173 182
173 188
173 236
174 173
174 175
174 176
174 188
175 174
175 176
175 180
175 185
176 174
176 175
176 177
176 188
177 176
177 178
177 183
177 188
178 177
178 179
178 187
178 188
179 178
179 180
179 181
179 188
180 175
180 179
180 181
180 185
181 179
181 180
181 182
181 188
182 173
182 181
182 183
182 188
183 177
183 182
183 184
183 188
184 183
184 185
184 186
184 188
185 175
185 180
185 184
185 186
186 184
186 185
186 187
186 188
187 170
187 178
187 186
187 188
188 170
188 173
188 174
188 176
188 177
188 178
188 179
188 181
188 182
188 183
188 184
188 186
188 187
188 321
189 171
189 190
189 198
189 204
190 189
190 191
190 192
190 204
191 190
191 192
191 196
191 201
192 190
192 191
192 193
192 204
193 192
193 194
193 199
193 204
194 193
194 195
194 203
194 204
195 194
195 196
195 197
195 204
196 191
196 195
196 197
196 201
197 195
197 196
197 198
197 204
198 189
198 197
198 199
198 204
199 193
199 198
199 200
199 204
200 199
200 201
200 202
200 204
201 191
201 196
201 200
201 202
202 200
202 201
202 203
202 204
203 194
203 202
203 204
203 235
204 171
204 189
204 190
204 192
204 193
204 194
204 195
204 197
204 198
204 199
204 200
204 202
204 203
204 251
205 206
205 214
205 220
205 338
206 205
206 207
206 208
206 220
207 206
207 208
207 212
207 217
208 206
208 207
208 209
208 220
209 208
209 210
209 215
209 220
210 209
210 211
210 219
210 220
211 210
211 212
211 213
211 220
212 207
212 211
212 213
212 217
213 211
213 212
213 214
213 220
214 205
214 213
214 215
214 220
215 209
215 214
215 216
215 220
216 215
216 217
216 218
216 220
217 207
217 212
217 216
217 218
218 216
218 217
218 219
218 220
219 172
219 210
219 218
219 220
220 172
220 205
220 206
220 208
220 209
220 210
220 211
220 213
220 214
220 215
220 216
220 218
220 219
220 252
221 222
221 230
221 236
221 338
222 221
222 223
222 224
222 236
223 222
223 224
223 228
223 233
224 222
224 223
224 225
224 236
225 224
225 226
225 231
225 236
226 225
226 227
226 235
226 236
227 226
227 228
227 229
227 236
228 223
228 227
228 229
228 233
229 227
229 228
229 230
229 236
230 221
230 229
230 231
230 236
231 225
231 230
231 232
231 236
232 231
232 233
232 234
232 236
233 223
233 228
233 232
233 234
234 232
234 233
234 235
234 236
235 203
235 226
235 234
235 236
236 83
236 173
236 221
236 222
236 224
236 225
236 226
236 227
236 229
236 230
236 231
236 232
236 234
236 235
237 238
237 246
237 252
237 337
238 237
238 239
238 240
238 252
239 238
239 240
239 244
239 249
240 238
240 239
240 241
240 252
241 240
241 242
241 247
241 252
242 241
242 243
242 251
242 252
243 242
243 244
243 245
243 252
244 239
244 243
244 245
244 249
245 243
245 244
245 246
245 252
246 237
246 245
246 247
246 252
247 241
247 246
247 248
247 252
248 247
248 249
248 250
248 252
249 239
249 244
249 248
249 250
250 248
250 249
250 251
250 252
251 204
251 242
251 250
251 252
252 67
252 220
252 237
252 238
252 240
252 241
252 242
252 243
252 245
252 246
252 247
252 248
252 250
252 251
253 255
253 257
253 272
253 273
254 256
254 273
254 322
254 338
255 253
255 257
255 274
255 289
256 254
256 290
256 306
256 338
257 253
257 255
257 304
257 305
258 259
258 267
258 273
258 321
259 258
259 260
259 261
259 273
260 259
260 261
260 265
260 270
261 259
261 260
261 262
261 273
262 261
262 263
262 268
262 273
263 262
263 264
263 272
263 273
264 263
264 265
264 266
264 273
265 260
265 264
265 266
265 270
266 264
266 265
266 267
266 273
267 258
267 266
267 268
267 273
268 262
268 267
268 269
268 273
269 268
269 270
269 271
269 273
270 260
270 265
270 269
270 271
271 269
271 270
271 272
271 273
272 253
272 263
272 271
272 273
273 253
273 254
273 258
273 259
273 261
273 262
273 263
273 264
273 266
273 267
273 268
273 269
273 271
273 272
274 255
274 275
274 283
274 289
275 274
275 276
275 277
275 289
276 275
276 277
276 281
276 286
277 275
277 276
277 278
277 289
278 277
278 279
278 284
278 289
279 278
279 280
279 288
279 289
280 279
280 281
280 282
280 289
281 276
281 280
281 282
281 286
282 280
282 281
282 283
282 289
283 274
283 282
283 284
283 289
284 278
284 283
284 285
284 289
285 284
285 286
285 287
285 289
286 276
286 281
286 285
286 287
287 285
287 286
287 288
287 289
288 279
288 287
288 289
288 320
289 255
289 274
289 275
289 277
289 278
289 279
289 280
289 282
289 283
289 284
289 285
289 287
289 288
289 336
290 256
290 291
290 299
290 305
291 290
291 292
291 293
291 305
292 291
292 293
292 297
292 302
293 291
293 292
293 294
293 305
294 293
294 295
294 300
294 305
295 294
295 296
295 304
295 305
296 295
296 297
296 298
296 305
297 292
297 296
297 298
297 302
298 296
298 297
298 299
298 305
299 290
299 298
299 300
299 305
300 294
300 299
300 301
300 305
301 300
301 302
301 303
301 305
302 292
302 297
302 301
302 303
303 301
303 302
303 304
303 305
304 257
304 295
304 303
304 305
305 257
305 290
305 291
305 293
305 294
305 295
305 296
305 298
305 299
305 300
305 301
305 303
305 304
305 337
306 256
306 307
306 315
306 321
307 306
307 308
307 309
307 321
308 307
308 309
308 313
308 318
309 307
309 308
309 310
309 321
310 309
310 311
310 316
310 321
311 310
311 312
311 320
311 321
312 311
312 313
312 314
312 321
313 308
313 312
313 314
313 318
314 312
314 313
314 315
314 321
315 306
315 314
315 316
315 321
316 310
316 315
316 317
316 321
317 316
317 318
317 319
317 321
318 308
318 313
318 317
318 319
319 317
319 318
319 320
319 321
320 288
320 311
320 319
320 321
321 188
321 258
321 306
321 307
321 309
321 310
321 311
321 312
321 314
321 315
321 316
321 317
321 319
321 320
322 254
322 323
322 331
322 337
323 322
323 324
323 325
323 337
324 323
324 325
324 329
324 334
325 323
325 324
325 326
325 337
326 325
326 327
326 332
326 337
327 326
327 328
327 336
327 337
328 327
328 329
328 330
328 337
329 324
329 328
329 330
329 334
330 328
330 329
330 331
330 337
331 322
331 330
331 332
331 337
332 326
332 331
332 333
332 337
333 332
333 334
333 335
333 337
334 324
334 329
334 333
334 335
335 333
335 334
335 336
335 337
336 289
336 327
336 335
336 337
337 237
337 305
337 322
337 323
337 325
337 326
337 327
337 328
337 330
337 331
337 332
337 333
337 335
337 336
338 205
338 221
338 254
338 256
-1
EOF